(set-info :smt-lib-version 2.6)
(set-logic UF)
(set-info :source |Benchmarks from the paper: "Extending Sledgehammer with SMT Solvers" by Jasmin Blanchette, Sascha Bohme, and Lawrence C. Paulson, CADE 2011.  Translated to SMT2 by Andrew Reynolds and Morgan Deters.|)
(set-info :category "industrial")
(set-info :status unknown)
(declare-sort S1 0)
(declare-sort S2 0)
(declare-sort S3 0)
(declare-sort S4 0)
(declare-sort S5 0)
(declare-sort S6 0)
(declare-sort S7 0)
(declare-sort S8 0)
(declare-sort S9 0)
(declare-sort S10 0)
(declare-sort S11 0)
(declare-sort S12 0)
(declare-sort S13 0)
(declare-sort S14 0)
(declare-sort S15 0)
(declare-sort S16 0)
(declare-sort S17 0)
(declare-sort S18 0)
(declare-sort S19 0)
(declare-sort S20 0)
(declare-sort S21 0)
(declare-sort S22 0)
(declare-sort S23 0)
(declare-sort S24 0)
(declare-sort S25 0)
(declare-sort S26 0)
(declare-sort S27 0)
(declare-sort S28 0)
(declare-sort S29 0)
(declare-sort S30 0)
(declare-sort S31 0)
(declare-sort S32 0)
(declare-sort S33 0)
(declare-sort S34 0)
(declare-sort S35 0)
(declare-sort S36 0)
(declare-sort S37 0)
(declare-sort S38 0)
(declare-sort S39 0)
(declare-sort S40 0)
(declare-sort S41 0)
(declare-sort S42 0)
(declare-sort S43 0)
(declare-sort S44 0)
(declare-sort S45 0)
(declare-sort S46 0)
(declare-sort S47 0)
(declare-sort S48 0)
(declare-sort S49 0)
(declare-sort S50 0)
(declare-sort S51 0)
(declare-sort S52 0)
(declare-sort S53 0)
(declare-sort S54 0)
(declare-sort S55 0)
(declare-sort S56 0)
(declare-sort S57 0)
(declare-sort S58 0)
(declare-sort S59 0)
(declare-sort S60 0)
(declare-sort S61 0)
(declare-sort S62 0)
(declare-sort S63 0)
(declare-sort S64 0)
(declare-sort S65 0)
(declare-sort S66 0)
(declare-sort S67 0)
(declare-sort S68 0)
(declare-sort S69 0)
(declare-sort S70 0)
(declare-sort S71 0)
(declare-sort S72 0)
(declare-sort S73 0)
(declare-sort S74 0)
(declare-sort S75 0)
(declare-sort S76 0)
(declare-sort S77 0)
(declare-sort S78 0)
(declare-sort S79 0)
(declare-sort S80 0)
(declare-sort S81 0)
(declare-sort S82 0)
(declare-sort S83 0)
(declare-sort S84 0)
(declare-sort S85 0)
(declare-sort S86 0)
(declare-sort S87 0)
(declare-sort S88 0)
(declare-sort S89 0)
(declare-sort S90 0)
(declare-sort S91 0)
(declare-sort S92 0)
(declare-sort S93 0)
(declare-sort S94 0)
(declare-sort S95 0)
(declare-sort S96 0)
(declare-sort S97 0)
(declare-sort S98 0)
(declare-sort S99 0)
(declare-sort S100 0)
(declare-sort S101 0)
(declare-fun f1 () S1)
(declare-fun f2 () S1)
(declare-fun f3 (S2 S4) S1)
(declare-fun f4 (S5 S3) S2)
(declare-fun f5 (S2) S5)
(declare-fun f6 (S4 S2) S1)
(declare-fun f7 (S3) S2)
(declare-fun f8 (S6 S8) S1)
(declare-fun f9 (S9 S7) S6)
(declare-fun f10 (S6) S9)
(declare-fun f11 (S8 S6) S1)
(declare-fun f12 (S7) S6)
(declare-fun f13 (S10 S12) S1)
(declare-fun f14 (S13 S11) S10)
(declare-fun f15 (S10) S13)
(declare-fun f16 (S12 S10) S1)
(declare-fun f17 (S11) S10)
(declare-fun f18 (S14 S11) S1)
(declare-fun f19 (S16 S15) S14)
(declare-fun f20 (S14) S16)
(declare-fun f21 (S11 S14) S1)
(declare-fun f22 (S15) S14)
(declare-fun f23 (S17 S19) S1)
(declare-fun f24 (S20 S18) S17)
(declare-fun f25 (S17) S20)
(declare-fun f26 (S19 S17) S1)
(declare-fun f27 (S18) S17)
(declare-fun f28 (S21 S2) S2)
(declare-fun f29 (S2) S21)
(declare-fun f30 (S22 S6) S6)
(declare-fun f31 (S6) S22)
(declare-fun f32 (S23 S10) S10)
(declare-fun f33 (S10) S23)
(declare-fun f34 (S24 S14) S14)
(declare-fun f35 (S14) S24)
(declare-fun f36 (S25 S17) S17)
(declare-fun f37 (S17) S25)
(declare-fun f38 (S26 S18) S1)
(declare-fun f39 (S27 S19) S26)
(declare-fun f40 (S28 S19) S27)
(declare-fun f41 () S28)
(declare-fun f42 (S29 S18) S19)
(declare-fun f43 (S30 S19) S29)
(declare-fun f44 () S30)
(declare-fun f45 () S27)
(declare-fun f46 (S31 S8) S8)
(declare-fun f47 () S31)
(declare-fun f48 (S32 S18) S4)
(declare-fun f49 (S33 S19) S32)
(declare-fun f50 () S33)
(declare-fun f51 () S19)
(declare-fun f52 () S18)
(declare-fun f53 (S34 S7) S3)
(declare-fun f54 () S34)
(declare-fun f55 (S35 S7) S7)
(declare-fun f56 (S36 S8) S35)
(declare-fun f57 () S36)
(declare-fun f58 (S37 S18) S8)
(declare-fun f59 (S38 S19) S37)
(declare-fun f60 (S39 S19) S38)
(declare-fun f61 () S39)
(declare-fun f62 () S29)
(declare-fun f63 (S40 S7) S18)
(declare-fun f64 (S41 S42) S40)
(declare-fun f65 () S41)
(declare-fun f66 () S42)
(declare-fun f67 () S7)
(declare-fun f68 () S19)
(declare-fun f69 (S43 S18) S18)
(declare-fun f70 (S44 S19) S43)
(declare-fun f71 () S44)
(declare-fun f72 () S19)
(declare-fun f73 () S18)
(declare-fun f74 (S45 S31) S35)
(declare-fun f75 () S45)
(declare-fun f76 (S46 S19) S31)
(declare-fun f77 () S46)
(declare-fun f78 (S19) S17)
(declare-fun f79 () S19)
(declare-fun f80 (S19) S17)
(declare-fun f81 (S47 S19) S19)
(declare-fun f82 (S48 S19) S47)
(declare-fun f83 () S48)
(declare-fun f84 () S42)
(declare-fun f85 (S49 S6) S35)
(declare-fun f86 () S49)
(declare-fun f87 (S50 S28) S6)
(declare-fun f88 (S51 S28) S50)
(declare-fun f89 (S27) S51)
(declare-fun f90 () S39)
(declare-fun f91 () S19)
(declare-fun f92 () S19)
(declare-fun f93 () S19)
(declare-fun f94 () S18)
(declare-fun f95 () S8)
(declare-fun f96 () S18)
(declare-fun f97 (S42 S8) S19)
(declare-fun f98 () S3)
(declare-fun f99 () S35)
(declare-fun f100 (S52 S17) S43)
(declare-fun f101 () S52)
(declare-fun f102 () S7)
(declare-fun f103 (S53 S3) S3)
(declare-fun f104 (S54 S2) S53)
(declare-fun f105 () S54)
(declare-fun f106 (S55 S15) S15)
(declare-fun f107 (S56 S14) S55)
(declare-fun f108 () S56)
(declare-fun f109 () S15)
(declare-fun f110 (S57 S11) S11)
(declare-fun f111 (S58 S10) S57)
(declare-fun f112 () S58)
(declare-fun f113 () S11)
(declare-fun f114 (S59 S12) S57)
(declare-fun f115 () S59)
(declare-fun f116 (S60 S11) S55)
(declare-fun f117 () S60)
(declare-fun f118 (S61 S4) S53)
(declare-fun f119 () S61)
(declare-fun f120 (S63 S3) S11)
(declare-fun f121 (S64 S62) S63)
(declare-fun f122 () S64)
(declare-fun f123 (S62 S4) S12)
(declare-fun f124 (S66 S3) S15)
(declare-fun f125 (S67 S65) S66)
(declare-fun f126 () S67)
(declare-fun f127 (S65 S4) S11)
(declare-fun f128 (S69 S3) S18)
(declare-fun f129 (S70 S68) S69)
(declare-fun f130 () S70)
(declare-fun f131 (S68 S4) S19)
(declare-fun f132 (S72 S3) S7)
(declare-fun f133 (S73 S71) S72)
(declare-fun f134 () S73)
(declare-fun f135 (S71 S4) S8)
(declare-fun f136 (S75 S11) S3)
(declare-fun f137 (S76 S74) S75)
(declare-fun f138 () S76)
(declare-fun f139 (S74 S12) S4)
(declare-fun f140 (S78 S15) S3)
(declare-fun f141 (S79 S77) S78)
(declare-fun f142 () S79)
(declare-fun f143 (S77 S11) S4)
(declare-fun f144 (S81 S18) S3)
(declare-fun f145 (S82 S80) S81)
(declare-fun f146 () S82)
(declare-fun f147 (S80 S19) S4)
(declare-fun f148 (S84 S83) S34)
(declare-fun f149 () S84)
(declare-fun f150 (S83 S8) S4)
(declare-fun f151 (S86 S7) S11)
(declare-fun f152 (S87 S85) S86)
(declare-fun f153 () S87)
(declare-fun f154 (S85 S8) S12)
(declare-fun f155 (S89 S7) S15)
(declare-fun f156 (S90 S88) S89)
(declare-fun f157 () S90)
(declare-fun f158 (S88 S8) S11)
(declare-fun f159 (S92 S18) S7)
(declare-fun f160 (S93 S91) S92)
(declare-fun f161 () S93)
(declare-fun f162 (S91 S19) S8)
(declare-fun f163 (S95 S11) S7)
(declare-fun f164 (S96 S94) S95)
(declare-fun f165 () S96)
(declare-fun f166 (S94 S12) S8)
(declare-fun f167 (S98 S15) S7)
(declare-fun f168 (S99 S97) S98)
(declare-fun f169 () S99)
(declare-fun f170 (S97 S11) S8)
(declare-fun f171 (S17) S17)
(declare-fun f172 (S6) S6)
(declare-fun f173 (S2) S2)
(declare-fun f174 (S14) S14)
(declare-fun f175 (S10) S10)
(declare-fun f176 (S100 S30) S29)
(declare-fun f177 (S101 S19) S100)
(declare-fun f178 () S101)
(declare-fun f179 (S17 S17) S1)
(declare-fun f180 (S6 S6) S1)
(declare-fun f181 (S2 S2) S1)
(declare-fun f182 (S10 S10) S1)
(declare-fun f183 (S14 S14) S1)
(assert (not (= f1 f2)))
(assert (forall ((?v0 S2) (?v1 S3) (?v2 S4)) (= (= (f3 (f4 (f5 ?v0) ?v1) ?v2) f1) (and (= (f6 ?v2 (f7 ?v1)) f1) (= (f3 ?v0 ?v2) f1)))))
(assert (forall ((?v0 S6) (?v1 S7) (?v2 S8)) (= (= (f8 (f9 (f10 ?v0) ?v1) ?v2) f1) (and (= (f11 ?v2 (f12 ?v1)) f1) (= (f8 ?v0 ?v2) f1)))))
(assert (forall ((?v0 S10) (?v1 S11) (?v2 S12)) (= (= (f13 (f14 (f15 ?v0) ?v1) ?v2) f1) (and (= (f16 ?v2 (f17 ?v1)) f1) (= (f13 ?v0 ?v2) f1)))))
(assert (forall ((?v0 S14) (?v1 S15) (?v2 S11)) (= (= (f18 (f19 (f20 ?v0) ?v1) ?v2) f1) (and (= (f21 ?v2 (f22 ?v1)) f1) (= (f18 ?v0 ?v2) f1)))))
(assert (forall ((?v0 S17) (?v1 S18) (?v2 S19)) (= (= (f23 (f24 (f25 ?v0) ?v1) ?v2) f1) (and (= (f26 ?v2 (f27 ?v1)) f1) (= (f23 ?v0 ?v2) f1)))))
(assert (forall ((?v0 S2) (?v1 S2) (?v2 S4)) (= (= (f3 (f28 (f29 ?v0) ?v1) ?v2) f1) (and (= (f3 ?v1 ?v2) f1) (= (f3 ?v0 ?v2) f1)))))
(assert (forall ((?v0 S6) (?v1 S6) (?v2 S8)) (= (= (f8 (f30 (f31 ?v0) ?v1) ?v2) f1) (and (= (f8 ?v1 ?v2) f1) (= (f8 ?v0 ?v2) f1)))))
(assert (forall ((?v0 S10) (?v1 S10) (?v2 S12)) (= (= (f13 (f32 (f33 ?v0) ?v1) ?v2) f1) (and (= (f13 ?v1 ?v2) f1) (= (f13 ?v0 ?v2) f1)))))
(assert (forall ((?v0 S14) (?v1 S14) (?v2 S11)) (= (= (f18 (f34 (f35 ?v0) ?v1) ?v2) f1) (and (= (f18 ?v1 ?v2) f1) (= (f18 ?v0 ?v2) f1)))))
(assert (forall ((?v0 S17) (?v1 S17) (?v2 S19)) (= (= (f23 (f36 (f37 ?v0) ?v1) ?v2) f1) (and (= (f23 ?v1 ?v2) f1) (= (f23 ?v0 ?v2) f1)))))
(assert (forall ((?v0 S19) (?v1 S19) (?v2 S18)) (= (= (f38 (f39 (f40 f41 ?v0) ?v1) ?v2) f1) true)))
(assert (forall ((?v0 S19) (?v1 S18)) (= (f42 (f43 f44 ?v0) ?v1) ?v0)))
(assert (forall ((?v0 S19) (?v1 S18)) (= (= (f38 (f39 f45 ?v0) ?v1) f1) false)))
(assert (forall ((?v0 S8)) (= (f46 f47 ?v0) ?v0)))
(assert (not false))
(assert (let ((?v_0 (f42 f62 (f63 (f64 f65 f66) f67)))) (= (f6 (f48 (f49 f50 f51) f52) (f7 (f53 f54 (f55 (f56 f57 (f58 (f59 (f60 f61 ?v_0) f68) (f69 (f70 f71 f72) f73))) (f55 (f74 f75 (f76 f77 ?v_0)) f67))))) f1)))
(assert (= (f23 (f78 f68) f79) f1))
(assert (let ((?v_0 (f42 f62 (f63 (f64 f65 f66) f67)))) (= (f23 (f80 f79) (f81 (f82 f83 ?v_0) (f42 f62 (f63 (f64 f65 f84) (f55 (f85 f86 (f87 (f88 (f89 f45) f41) f41)) (f55 (f74 f75 (f76 f77 ?v_0)) f67)))))) f1)))
(assert (= (f11 (f58 (f59 (f60 f90 f91) f92) (f69 (f70 f71 f93) f94)) (f12 f67)) f1))
(assert (= f95 (f58 (f59 (f60 f90 f91) f92) (f69 (f70 f71 f93) f94))))
(assert (= f96 (f69 (f70 f71 f93) f94)))
(assert (forall ((?v0 S8)) (=> (= (f11 ?v0 (f12 f67)) f1) (and (not (= (f97 f66 ?v0) f68)) (not (= (f97 f84 ?v0) f68))))))
(assert (let ((?v_0 (f42 f62 (f63 (f64 f65 f66) f67)))) (not (= (f53 f54 (f55 (f56 f57 (f58 (f59 (f60 f61 ?v_0) f68) (f69 (f70 f71 f72) f73))) (f55 (f74 f75 (f76 f77 ?v_0)) f67))) f98))))
(assert (not (= f93 f68)))
(assert (let ((?v_0 (f42 f62 (f63 (f64 f65 f66) f67)))) (or (and (= (f23 (f78 f68) ?v_0) f1) (= (f23 (f80 ?v_0) f93) f1)) (or (and (= (f23 (f78 ?v_0) f68) f1) (= (f23 (f80 f93) ?v_0) f1)) (= f91 f68)))))
(assert (forall ((?v0 S19)) (=> (= (f26 ?v0 (f27 (f63 (f64 f65 f66) f67))) f1) (not (= ?v0 f68)))))
(assert (forall ((?v0 S19)) (= (= (f23 (f78 f72) ?v0) f1) (= (f23 (f80 f68) ?v0) f1))))
(assert (forall ((?v0 S19) (?v1 S19) (?v2 S19)) (let ((?v_0 (f58 (f59 (f60 f90 ?v1) ?v2) f73))) (= (f46 (f76 f77 ?v0) ?v_0) ?v_0))))
(assert (forall ((?v0 S19) (?v1 S19) (?v2 S19)) (let ((?v_0 (f58 (f59 (f60 f61 ?v1) ?v2) f73))) (= (f46 (f76 f77 ?v0) ?v_0) ?v_0))))
(assert (forall ((?v0 S18)) (= (= (f42 f62 ?v0) f68) (= (f26 f68 (f27 ?v0)) f1))))
(assert (forall ((?v0 S19) (?v1 S18)) (= (f42 f62 (f69 (f70 f71 ?v0) ?v1)) (f81 (f82 f83 ?v0) (f42 f62 ?v1)))))
(assert (= (f42 f62 f73) f72))
(assert (forall ((?v0 S7)) (let ((?v_0 (f42 f62 (f63 (f64 f65 f66) ?v0)))) (= (f55 f99 ?v0) (f55 (f56 f57 (f58 (f59 (f60 f61 ?v_0) f68) (f69 (f70 f71 f72) f73))) (f55 (f74 f75 (f76 f77 ?v_0)) ?v0))))))
(assert (forall ((?v0 S19) (?v1 S19)) (=> (not (= ?v0 f68)) (=> (not (= ?v1 f68)) (= (f23 (f80 f68) (f81 (f82 f83 ?v0) ?v1)) f1)))))
(assert (forall ((?v0 S19) (?v1 S19)) (= (f23 (f78 f68) (f81 (f82 f83 ?v0) ?v1)) f1)))
(assert (forall ((?v0 S19) (?v1 S19)) (let ((?v_0 (f78 f68))) (=> (= (f23 ?v_0 ?v0) f1) (=> (= (f23 ?v_0 ?v1) f1) (= (f23 ?v_0 (f81 (f82 f83 ?v0) ?v1)) f1))))))
(assert (forall ((?v0 S17) (?v1 S18)) (= (= (f69 (f100 f101 ?v0) ?v1) f73) (forall ((?v2 S19)) (=> (= (f26 ?v2 (f27 ?v1)) f1) (not (= (f23 ?v0 ?v2) f1)))))))
(assert (forall ((?v0 S6) (?v1 S7)) (= (= (f55 (f85 f86 ?v0) ?v1) f102) (forall ((?v2 S8)) (=> (= (f11 ?v2 (f12 ?v1)) f1) (not (= (f8 ?v0 ?v2) f1)))))))
(assert (forall ((?v0 S2) (?v1 S3)) (= (= (f103 (f104 f105 ?v0) ?v1) f98) (forall ((?v2 S4)) (=> (= (f6 ?v2 (f7 ?v1)) f1) (not (= (f3 ?v0 ?v2) f1)))))))
(assert (forall ((?v0 S14) (?v1 S15)) (= (= (f106 (f107 f108 ?v0) ?v1) f109) (forall ((?v2 S11)) (=> (= (f21 ?v2 (f22 ?v1)) f1) (not (= (f18 ?v0 ?v2) f1)))))))
(assert (forall ((?v0 S10) (?v1 S11)) (= (= (f110 (f111 f112 ?v0) ?v1) f113) (forall ((?v2 S12)) (=> (= (f16 ?v2 (f17 ?v1)) f1) (not (= (f13 ?v0 ?v2) f1)))))))
(assert (= (f23 (f80 f68) f72) f1))
(assert (forall ((?v0 S12) (?v1 S11) (?v2 S12) (?v3 S11)) (= (= (f110 (f114 f115 ?v0) ?v1) (f110 (f114 f115 ?v2) ?v3)) (and (= ?v0 ?v2) (= ?v1 ?v3)))))
(assert (forall ((?v0 S11) (?v1 S15) (?v2 S11) (?v3 S15)) (= (= (f106 (f116 f117 ?v0) ?v1) (f106 (f116 f117 ?v2) ?v3)) (and (= ?v0 ?v2) (= ?v1 ?v3)))))
(assert (forall ((?v0 S19) (?v1 S18) (?v2 S19) (?v3 S18)) (= (= (f69 (f70 f71 ?v0) ?v1) (f69 (f70 f71 ?v2) ?v3)) (and (= ?v0 ?v2) (= ?v1 ?v3)))))
(assert (forall ((?v0 S8) (?v1 S7) (?v2 S8) (?v3 S7)) (= (= (f55 (f56 f57 ?v0) ?v1) (f55 (f56 f57 ?v2) ?v3)) (and (= ?v0 ?v2) (= ?v1 ?v3)))))
(assert (forall ((?v0 S4) (?v1 S3) (?v2 S4) (?v3 S3)) (= (= (f103 (f118 f119 ?v0) ?v1) (f103 (f118 f119 ?v2) ?v3)) (and (= ?v0 ?v2) (= ?v1 ?v3)))))
(assert (forall ((?v0 S12) (?v1 S11)) (not (= (f110 (f114 f115 ?v0) ?v1) ?v1))))
(assert (forall ((?v0 S11) (?v1 S15)) (not (= (f106 (f116 f117 ?v0) ?v1) ?v1))))
(assert (forall ((?v0 S19) (?v1 S18)) (not (= (f69 (f70 f71 ?v0) ?v1) ?v1))))
(assert (forall ((?v0 S8) (?v1 S7)) (not (= (f55 (f56 f57 ?v0) ?v1) ?v1))))
(assert (forall ((?v0 S4) (?v1 S3)) (not (= (f103 (f118 f119 ?v0) ?v1) ?v1))))
(assert (forall ((?v0 S11) (?v1 S12)) (not (= ?v0 (f110 (f114 f115 ?v1) ?v0)))))
(assert (forall ((?v0 S15) (?v1 S11)) (not (= ?v0 (f106 (f116 f117 ?v1) ?v0)))))
(assert (forall ((?v0 S18) (?v1 S19)) (not (= ?v0 (f69 (f70 f71 ?v1) ?v0)))))
(assert (forall ((?v0 S7) (?v1 S8)) (not (= ?v0 (f55 (f56 f57 ?v1) ?v0)))))
(assert (forall ((?v0 S3) (?v1 S4)) (not (= ?v0 (f103 (f118 f119 ?v1) ?v0)))))
(assert (forall ((?v0 S19) (?v1 S19)) (=> (= (f23 (f78 ?v0) ?v1) f1) (=> (= (f23 (f78 ?v1) ?v0) f1) (= ?v0 ?v1)))))
(assert (forall ((?v0 S19) (?v1 S19) (?v2 S19)) (let ((?v_0 (f78 ?v0))) (=> (= (f23 ?v_0 ?v1) f1) (=> (= (f23 (f78 ?v1) ?v2) f1) (= (f23 ?v_0 ?v2) f1))))))
(assert (forall ((?v0 S19) (?v1 S19)) (or (= (f23 (f78 ?v0) ?v1) f1) (= (f23 (f78 ?v1) ?v0) f1))))
(assert (forall ((?v0 S19)) (= (f23 (f78 ?v0) ?v0) f1)))
(assert (forall ((?v0 S19) (?v1 S19)) (or (= (f23 (f80 ?v0) ?v1) f1) (or (= ?v0 ?v1) (= (f23 (f80 ?v1) ?v0) f1)))))
(assert (forall ((?v0 S19) (?v1 S19) (?v2 S19)) (let ((?v_0 (f82 f83 ?v0))) (= (f81 (f82 f83 (f81 ?v_0 ?v1)) ?v2) (f81 ?v_0 (f81 (f82 f83 ?v1) ?v2))))))
(assert (forall ((?v0 S19) (?v1 S19) (?v2 S19)) (let ((?v_1 (f82 f83 ?v0)) (?v_0 (f82 f83 ?v1))) (= (f81 ?v_1 (f81 ?v_0 ?v2)) (f81 ?v_0 (f81 ?v_1 ?v2))))))
(assert (forall ((?v0 S19) (?v1 S19)) (= (f81 (f82 f83 ?v0) ?v1) (f81 (f82 f83 ?v1) ?v0))))
(assert (forall ((?v0 S19) (?v1 S19) (?v2 S18) (?v3 S19) (?v4 S19) (?v5 S18)) (= (= (f58 (f59 (f60 f61 ?v0) ?v1) ?v2) (f58 (f59 (f60 f61 ?v3) ?v4) ?v5)) (and (= ?v0 ?v3) (and (= ?v1 ?v4) (= ?v2 ?v5))))))
(assert (forall ((?v0 S19) (?v1 S19) (?v2 S18) (?v3 S19) (?v4 S19) (?v5 S18)) (= (= (f58 (f59 (f60 f90 ?v0) ?v1) ?v2) (f58 (f59 (f60 f90 ?v3) ?v4) ?v5)) (and (= ?v0 ?v3) (and (= ?v1 ?v4) (= ?v2 ?v5))))))
(assert (forall ((?v0 S7)) (= (f55 (f74 f75 f47) ?v0) ?v0)))
(assert (forall ((?v0 S6) (?v1 S6) (?v2 S7)) (= (f55 (f85 f86 ?v0) (f55 (f85 f86 ?v1) ?v2)) (f55 (f85 f86 (f30 (f31 ?v0) ?v1)) ?v2))))
(assert (forall ((?v0 S10) (?v1 S10) (?v2 S11)) (= (f110 (f111 f112 ?v0) (f110 (f111 f112 ?v1) ?v2)) (f110 (f111 f112 (f32 (f33 ?v0) ?v1)) ?v2))))
(assert (forall ((?v0 S14) (?v1 S14) (?v2 S15)) (= (f106 (f107 f108 ?v0) (f106 (f107 f108 ?v1) ?v2)) (f106 (f107 f108 (f34 (f35 ?v0) ?v1)) ?v2))))
(assert (forall ((?v0 S2) (?v1 S2) (?v2 S3)) (= (f103 (f104 f105 ?v0) (f103 (f104 f105 ?v1) ?v2)) (f103 (f104 f105 (f28 (f29 ?v0) ?v1)) ?v2))))
(assert (forall ((?v0 S17) (?v1 S17) (?v2 S18)) (= (f69 (f100 f101 ?v0) (f69 (f100 f101 ?v1) ?v2)) (f69 (f100 f101 (f36 (f37 ?v0) ?v1)) ?v2))))
(assert (forall ((?v0 S19) (?v1 S19) (?v2 S18)) (=> (= (f26 ?v0 (f27 (f69 (f70 f71 ?v1) ?v2))) f1) (or (= ?v0 ?v1) (= (f26 ?v0 (f27 ?v2)) f1)))))
(assert (forall ((?v0 S8) (?v1 S8) (?v2 S7)) (=> (= (f11 ?v0 (f12 (f55 (f56 f57 ?v1) ?v2))) f1) (or (= ?v0 ?v1) (= (f11 ?v0 (f12 ?v2)) f1)))))
(assert (forall ((?v0 S4) (?v1 S4) (?v2 S3)) (=> (= (f6 ?v0 (f7 (f103 (f118 f119 ?v1) ?v2))) f1) (or (= ?v0 ?v1) (= (f6 ?v0 (f7 ?v2)) f1)))))
(assert (forall ((?v0 S12) (?v1 S12) (?v2 S11)) (=> (= (f16 ?v0 (f17 (f110 (f114 f115 ?v1) ?v2))) f1) (or (= ?v0 ?v1) (= (f16 ?v0 (f17 ?v2)) f1)))))
(assert (forall ((?v0 S11) (?v1 S11) (?v2 S15)) (=> (= (f21 ?v0 (f22 (f106 (f116 f117 ?v1) ?v2))) f1) (or (= ?v0 ?v1) (= (f21 ?v0 (f22 ?v2)) f1)))))
(assert (forall ((?v0 S11) (?v1 S15)) (not (= (f106 (f116 f117 ?v0) ?v1) f109))))
(assert (forall ((?v0 S12) (?v1 S11)) (not (= (f110 (f114 f115 ?v0) ?v1) f113))))
(assert (forall ((?v0 S4) (?v1 S3)) (not (= (f103 (f118 f119 ?v0) ?v1) f98))))
(assert (forall ((?v0 S19) (?v1 S18)) (not (= (f69 (f70 f71 ?v0) ?v1) f73))))
(assert (forall ((?v0 S8) (?v1 S7)) (not (= (f55 (f56 f57 ?v0) ?v1) f102))))
(assert (forall ((?v0 S11) (?v1 S15)) (not (= f109 (f106 (f116 f117 ?v0) ?v1)))))
(assert (forall ((?v0 S12) (?v1 S11)) (not (= f113 (f110 (f114 f115 ?v0) ?v1)))))
(assert (forall ((?v0 S4) (?v1 S3)) (not (= f98 (f103 (f118 f119 ?v0) ?v1)))))
(assert (forall ((?v0 S19) (?v1 S18)) (not (= f73 (f69 (f70 f71 ?v0) ?v1)))))
(assert (forall ((?v0 S8) (?v1 S7)) (not (= f102 (f55 (f56 f57 ?v0) ?v1)))))
(assert (not (= f68 f72)))
(assert (forall ((?v0 S19) (?v1 S19)) (= (= (f23 (f80 ?v0) ?v1) f1) (and (= (f23 (f78 ?v0) ?v1) f1) (not (= ?v0 ?v1))))))
(assert (forall ((?v0 S31) (?v1 S8) (?v2 S7)) (let ((?v_0 (f74 f75 ?v0))) (= (f55 ?v_0 (f55 (f56 f57 ?v1) ?v2)) (f55 (f56 f57 (f46 ?v0 ?v1)) (f55 ?v_0 ?v2))))))
(assert (forall ((?v0 S42) (?v1 S8) (?v2 S7)) (let ((?v_0 (f64 f65 ?v0))) (= (f63 ?v_0 (f55 (f56 f57 ?v1) ?v2)) (f69 (f70 f71 (f97 ?v0 ?v1)) (f63 ?v_0 ?v2))))))
(assert (forall ((?v0 S62) (?v1 S4) (?v2 S3)) (let ((?v_0 (f121 f122 ?v0))) (= (f120 ?v_0 (f103 (f118 f119 ?v1) ?v2)) (f110 (f114 f115 (f123 ?v0 ?v1)) (f120 ?v_0 ?v2))))))
(assert (forall ((?v0 S65) (?v1 S4) (?v2 S3)) (let ((?v_0 (f125 f126 ?v0))) (= (f124 ?v_0 (f103 (f118 f119 ?v1) ?v2)) (f106 (f116 f117 (f127 ?v0 ?v1)) (f124 ?v_0 ?v2))))))
(assert (forall ((?v0 S68) (?v1 S4) (?v2 S3)) (let ((?v_0 (f129 f130 ?v0))) (= (f128 ?v_0 (f103 (f118 f119 ?v1) ?v2)) (f69 (f70 f71 (f131 ?v0 ?v1)) (f128 ?v_0 ?v2))))))
(assert (forall ((?v0 S71) (?v1 S4) (?v2 S3)) (let ((?v_0 (f133 f134 ?v0))) (= (f132 ?v_0 (f103 (f118 f119 ?v1) ?v2)) (f55 (f56 f57 (f135 ?v0 ?v1)) (f132 ?v_0 ?v2))))))
(assert (forall ((?v0 S74) (?v1 S12) (?v2 S11)) (let ((?v_0 (f137 f138 ?v0))) (= (f136 ?v_0 (f110 (f114 f115 ?v1) ?v2)) (f103 (f118 f119 (f139 ?v0 ?v1)) (f136 ?v_0 ?v2))))))
(assert (forall ((?v0 S77) (?v1 S11) (?v2 S15)) (let ((?v_0 (f141 f142 ?v0))) (= (f140 ?v_0 (f106 (f116 f117 ?v1) ?v2)) (f103 (f118 f119 (f143 ?v0 ?v1)) (f140 ?v_0 ?v2))))))
(assert (forall ((?v0 S80) (?v1 S19) (?v2 S18)) (let ((?v_0 (f145 f146 ?v0))) (= (f144 ?v_0 (f69 (f70 f71 ?v1) ?v2)) (f103 (f118 f119 (f147 ?v0 ?v1)) (f144 ?v_0 ?v2))))))
(assert (forall ((?v0 S83) (?v1 S8) (?v2 S7)) (let ((?v_0 (f148 f149 ?v0))) (= (f53 ?v_0 (f55 (f56 f57 ?v1) ?v2)) (f103 (f118 f119 (f150 ?v0 ?v1)) (f53 ?v_0 ?v2))))))
(assert (forall ((?v0 S85) (?v1 S8) (?v2 S7)) (let ((?v_0 (f152 f153 ?v0))) (= (f151 ?v_0 (f55 (f56 f57 ?v1) ?v2)) (f110 (f114 f115 (f154 ?v0 ?v1)) (f151 ?v_0 ?v2))))))
(assert (forall ((?v0 S88) (?v1 S8) (?v2 S7)) (let ((?v_0 (f156 f157 ?v0))) (= (f155 ?v_0 (f55 (f56 f57 ?v1) ?v2)) (f106 (f116 f117 (f158 ?v0 ?v1)) (f155 ?v_0 ?v2))))))
(assert (forall ((?v0 S91) (?v1 S19) (?v2 S18)) (let ((?v_0 (f160 f161 ?v0))) (= (f159 ?v_0 (f69 (f70 f71 ?v1) ?v2)) (f55 (f56 f57 (f162 ?v0 ?v1)) (f159 ?v_0 ?v2))))))
(assert (forall ((?v0 S94) (?v1 S12) (?v2 S11)) (let ((?v_0 (f164 f165 ?v0))) (= (f163 ?v_0 (f110 (f114 f115 ?v1) ?v2)) (f55 (f56 f57 (f166 ?v0 ?v1)) (f163 ?v_0 ?v2))))))
(assert (forall ((?v0 S97) (?v1 S11) (?v2 S15)) (let ((?v_0 (f168 f169 ?v0))) (= (f167 ?v_0 (f106 (f116 f117 ?v1) ?v2)) (f55 (f56 f57 (f170 ?v0 ?v1)) (f167 ?v_0 ?v2))))))
(assert (forall ((?v0 S31) (?v1 S7) (?v2 S31)) (= (= (f55 (f74 f75 ?v0) ?v1) (f55 (f74 f75 ?v2) ?v1)) (forall ((?v3 S8)) (=> (= (f11 ?v3 (f12 ?v1)) f1) (= (f46 ?v0 ?v3) (f46 ?v2 ?v3)))))))
(assert (forall ((?v0 S42) (?v1 S7) (?v2 S42)) (= (= (f63 (f64 f65 ?v0) ?v1) (f63 (f64 f65 ?v2) ?v1)) (forall ((?v3 S8)) (=> (= (f11 ?v3 (f12 ?v1)) f1) (= (f97 ?v0 ?v3) (f97 ?v2 ?v3)))))))
(assert (forall ((?v0 S83) (?v1 S7) (?v2 S83)) (= (= (f53 (f148 f149 ?v0) ?v1) (f53 (f148 f149 ?v2) ?v1)) (forall ((?v3 S8)) (=> (= (f11 ?v3 (f12 ?v1)) f1) (= (f150 ?v0 ?v3) (f150 ?v2 ?v3)))))))
(assert (forall ((?v0 S85) (?v1 S7) (?v2 S85)) (= (= (f151 (f152 f153 ?v0) ?v1) (f151 (f152 f153 ?v2) ?v1)) (forall ((?v3 S8)) (=> (= (f11 ?v3 (f12 ?v1)) f1) (= (f154 ?v0 ?v3) (f154 ?v2 ?v3)))))))
(assert (forall ((?v0 S88) (?v1 S7) (?v2 S88)) (= (= (f155 (f156 f157 ?v0) ?v1) (f155 (f156 f157 ?v2) ?v1)) (forall ((?v3 S8)) (=> (= (f11 ?v3 (f12 ?v1)) f1) (= (f158 ?v0 ?v3) (f158 ?v2 ?v3)))))))
(assert (forall ((?v0 S91) (?v1 S18) (?v2 S91)) (= (= (f159 (f160 f161 ?v0) ?v1) (f159 (f160 f161 ?v2) ?v1)) (forall ((?v3 S19)) (=> (= (f26 ?v3 (f27 ?v1)) f1) (= (f162 ?v0 ?v3) (f162 ?v2 ?v3)))))))
(assert (forall ((?v0 S71) (?v1 S3) (?v2 S71)) (= (= (f132 (f133 f134 ?v0) ?v1) (f132 (f133 f134 ?v2) ?v1)) (forall ((?v3 S4)) (=> (= (f6 ?v3 (f7 ?v1)) f1) (= (f135 ?v0 ?v3) (f135 ?v2 ?v3)))))))
(assert (forall ((?v0 S80) (?v1 S18) (?v2 S80)) (= (= (f144 (f145 f146 ?v0) ?v1) (f144 (f145 f146 ?v2) ?v1)) (forall ((?v3 S19)) (=> (= (f26 ?v3 (f27 ?v1)) f1) (= (f147 ?v0 ?v3) (f147 ?v2 ?v3)))))))
(assert (forall ((?v0 S68) (?v1 S3) (?v2 S68)) (= (= (f128 (f129 f130 ?v0) ?v1) (f128 (f129 f130 ?v2) ?v1)) (forall ((?v3 S4)) (=> (= (f6 ?v3 (f7 ?v1)) f1) (= (f131 ?v0 ?v3) (f131 ?v2 ?v3)))))))
(assert (forall ((?v0 S65) (?v1 S3) (?v2 S65)) (= (= (f124 (f125 f126 ?v0) ?v1) (f124 (f125 f126 ?v2) ?v1)) (forall ((?v3 S4)) (=> (= (f6 ?v3 (f7 ?v1)) f1) (= (f127 ?v0 ?v3) (f127 ?v2 ?v3)))))))
(assert (forall ((?v0 S62) (?v1 S3) (?v2 S62)) (= (= (f120 (f121 f122 ?v0) ?v1) (f120 (f121 f122 ?v2) ?v1)) (forall ((?v3 S4)) (=> (= (f6 ?v3 (f7 ?v1)) f1) (= (f123 ?v0 ?v3) (f123 ?v2 ?v3)))))))
(assert (forall ((?v0 S97) (?v1 S15) (?v2 S97)) (= (= (f167 (f168 f169 ?v0) ?v1) (f167 (f168 f169 ?v2) ?v1)) (forall ((?v3 S11)) (=> (= (f21 ?v3 (f22 ?v1)) f1) (= (f170 ?v0 ?v3) (f170 ?v2 ?v3)))))))
(assert (forall ((?v0 S77) (?v1 S15) (?v2 S77)) (= (= (f140 (f141 f142 ?v0) ?v1) (f140 (f141 f142 ?v2) ?v1)) (forall ((?v3 S11)) (=> (= (f21 ?v3 (f22 ?v1)) f1) (= (f143 ?v0 ?v3) (f143 ?v2 ?v3)))))))
(assert (forall ((?v0 S94) (?v1 S11) (?v2 S94)) (= (= (f163 (f164 f165 ?v0) ?v1) (f163 (f164 f165 ?v2) ?v1)) (forall ((?v3 S12)) (=> (= (f16 ?v3 (f17 ?v1)) f1) (= (f166 ?v0 ?v3) (f166 ?v2 ?v3)))))))
(assert (forall ((?v0 S74) (?v1 S11) (?v2 S74)) (= (= (f136 (f137 f138 ?v0) ?v1) (f136 (f137 f138 ?v2) ?v1)) (forall ((?v3 S12)) (=> (= (f16 ?v3 (f17 ?v1)) f1) (= (f139 ?v0 ?v3) (f139 ?v2 ?v3)))))))
(assert (forall ((?v0 S31) (?v1 S7)) (= (= (f55 (f74 f75 ?v0) ?v1) f102) (= ?v1 f102))))
(assert (forall ((?v0 S42) (?v1 S7)) (= (= (f63 (f64 f65 ?v0) ?v1) f73) (= ?v1 f102))))
(assert (forall ((?v0 S97) (?v1 S15)) (= (= (f167 (f168 f169 ?v0) ?v1) f102) (= ?v1 f109))))
(assert (forall ((?v0 S94) (?v1 S11)) (= (= (f163 (f164 f165 ?v0) ?v1) f102) (= ?v1 f113))))
(assert (forall ((?v0 S71) (?v1 S3)) (= (= (f132 (f133 f134 ?v0) ?v1) f102) (= ?v1 f98))))
(assert (forall ((?v0 S91) (?v1 S18)) (= (= (f159 (f160 f161 ?v0) ?v1) f102) (= ?v1 f73))))
(assert (forall ((?v0 S88) (?v1 S7)) (= (= (f155 (f156 f157 ?v0) ?v1) f109) (= ?v1 f102))))
(assert (forall ((?v0 S85) (?v1 S7)) (= (= (f151 (f152 f153 ?v0) ?v1) f113) (= ?v1 f102))))
(assert (forall ((?v0 S83) (?v1 S7)) (= (= (f53 (f148 f149 ?v0) ?v1) f98) (= ?v1 f102))))
(assert (forall ((?v0 S80) (?v1 S18)) (= (= (f144 (f145 f146 ?v0) ?v1) f98) (= ?v1 f73))))
(assert (forall ((?v0 S77) (?v1 S15)) (= (= (f140 (f141 f142 ?v0) ?v1) f98) (= ?v1 f109))))
(assert (forall ((?v0 S74) (?v1 S11)) (= (= (f136 (f137 f138 ?v0) ?v1) f98) (= ?v1 f113))))
(assert (forall ((?v0 S68) (?v1 S3)) (= (= (f128 (f129 f130 ?v0) ?v1) f73) (= ?v1 f98))))
(assert (forall ((?v0 S65) (?v1 S3)) (= (= (f124 (f125 f126 ?v0) ?v1) f109) (= ?v1 f98))))
(assert (forall ((?v0 S62) (?v1 S3)) (= (= (f120 (f121 f122 ?v0) ?v1) f113) (= ?v1 f98))))
(assert (forall ((?v0 S31)) (= (f55 (f74 f75 ?v0) f102) f102)))
(assert (forall ((?v0 S42)) (= (f63 (f64 f65 ?v0) f102) f73)))
(assert (forall ((?v0 S88)) (= (f155 (f156 f157 ?v0) f102) f109)))
(assert (forall ((?v0 S85)) (= (f151 (f152 f153 ?v0) f102) f113)))
(assert (forall ((?v0 S83)) (= (f53 (f148 f149 ?v0) f102) f98)))
(assert (forall ((?v0 S97)) (= (f167 (f168 f169 ?v0) f109) f102)))
(assert (forall ((?v0 S94)) (= (f163 (f164 f165 ?v0) f113) f102)))
(assert (forall ((?v0 S71)) (= (f132 (f133 f134 ?v0) f98) f102)))
(assert (forall ((?v0 S91)) (= (f159 (f160 f161 ?v0) f73) f102)))
(assert (forall ((?v0 S80)) (= (f144 (f145 f146 ?v0) f73) f98)))
(assert (forall ((?v0 S77)) (= (f140 (f141 f142 ?v0) f109) f98)))
(assert (forall ((?v0 S74)) (= (f136 (f137 f138 ?v0) f113) f98)))
(assert (forall ((?v0 S68)) (= (f128 (f129 f130 ?v0) f98) f73)))
(assert (forall ((?v0 S65)) (= (f124 (f125 f126 ?v0) f98) f109)))
(assert (forall ((?v0 S62)) (= (f120 (f121 f122 ?v0) f98) f113)))
(assert (forall ((?v0 S31) (?v1 S7)) (= (= f102 (f55 (f74 f75 ?v0) ?v1)) (= ?v1 f102))))
(assert (forall ((?v0 S42) (?v1 S7)) (= (= f73 (f63 (f64 f65 ?v0) ?v1)) (= ?v1 f102))))
(assert (forall ((?v0 S97) (?v1 S15)) (= (= f102 (f167 (f168 f169 ?v0) ?v1)) (= ?v1 f109))))
(assert (forall ((?v0 S94) (?v1 S11)) (= (= f102 (f163 (f164 f165 ?v0) ?v1)) (= ?v1 f113))))
(assert (forall ((?v0 S71) (?v1 S3)) (= (= f102 (f132 (f133 f134 ?v0) ?v1)) (= ?v1 f98))))
(assert (forall ((?v0 S91) (?v1 S18)) (= (= f102 (f159 (f160 f161 ?v0) ?v1)) (= ?v1 f73))))
(assert (forall ((?v0 S88) (?v1 S7)) (= (= f109 (f155 (f156 f157 ?v0) ?v1)) (= ?v1 f102))))
(assert (forall ((?v0 S85) (?v1 S7)) (= (= f113 (f151 (f152 f153 ?v0) ?v1)) (= ?v1 f102))))
(assert (forall ((?v0 S83) (?v1 S7)) (= (= f98 (f53 (f148 f149 ?v0) ?v1)) (= ?v1 f102))))
(assert (forall ((?v0 S80) (?v1 S18)) (= (= f98 (f144 (f145 f146 ?v0) ?v1)) (= ?v1 f73))))
(assert (forall ((?v0 S77) (?v1 S15)) (= (= f98 (f140 (f141 f142 ?v0) ?v1)) (= ?v1 f109))))
(assert (forall ((?v0 S74) (?v1 S11)) (= (= f98 (f136 (f137 f138 ?v0) ?v1)) (= ?v1 f113))))
(assert (forall ((?v0 S68) (?v1 S3)) (= (= f73 (f128 (f129 f130 ?v0) ?v1)) (= ?v1 f98))))
(assert (forall ((?v0 S65) (?v1 S3)) (= (= f109 (f124 (f125 f126 ?v0) ?v1)) (= ?v1 f98))))
(assert (forall ((?v0 S62) (?v1 S3)) (= (= f113 (f120 (f121 f122 ?v0) ?v1)) (= ?v1 f98))))
(assert (forall ((?v0 S6) (?v1 S8) (?v2 S7)) (let ((?v_1 (f85 f86 ?v0)) (?v_0 (f56 f57 ?v1))) (let ((?v_2 (f55 ?v_1 ?v2))) (= (f55 ?v_1 (f55 ?v_0 ?v2)) (ite (= (f8 ?v0 ?v1) f1) (f55 ?v_0 ?v_2) ?v_2))))))
(assert (forall ((?v0 S10) (?v1 S12) (?v2 S11)) (let ((?v_1 (f111 f112 ?v0)) (?v_0 (f114 f115 ?v1))) (let ((?v_2 (f110 ?v_1 ?v2))) (= (f110 ?v_1 (f110 ?v_0 ?v2)) (ite (= (f13 ?v0 ?v1) f1) (f110 ?v_0 ?v_2) ?v_2))))))
(assert (forall ((?v0 S14) (?v1 S11) (?v2 S15)) (let ((?v_1 (f107 f108 ?v0)) (?v_0 (f116 f117 ?v1))) (let ((?v_2 (f106 ?v_1 ?v2))) (= (f106 ?v_1 (f106 ?v_0 ?v2)) (ite (= (f18 ?v0 ?v1) f1) (f106 ?v_0 ?v_2) ?v_2))))))
(assert (forall ((?v0 S17) (?v1 S19) (?v2 S18)) (let ((?v_1 (f100 f101 ?v0)) (?v_0 (f70 f71 ?v1))) (let ((?v_2 (f69 ?v_1 ?v2))) (= (f69 ?v_1 (f69 ?v_0 ?v2)) (ite (= (f23 ?v0 ?v1) f1) (f69 ?v_0 ?v_2) ?v_2))))))
(assert (forall ((?v0 S2) (?v1 S4) (?v2 S3)) (let ((?v_1 (f104 f105 ?v0)) (?v_0 (f118 f119 ?v1))) (let ((?v_2 (f103 ?v_1 ?v2))) (= (f103 ?v_1 (f103 ?v_0 ?v2)) (ite (= (f3 ?v0 ?v1) f1) (f103 ?v_0 ?v_2) ?v_2))))))
(assert (forall ((?v0 S17) (?v1 S18)) (= (= (f69 (f100 f101 ?v0) ?v1) ?v1) (forall ((?v2 S19)) (=> (= (f26 ?v2 (f27 ?v1)) f1) (= (f23 ?v0 ?v2) f1))))))
(assert (forall ((?v0 S6) (?v1 S7)) (= (= (f55 (f85 f86 ?v0) ?v1) ?v1) (forall ((?v2 S8)) (=> (= (f11 ?v2 (f12 ?v1)) f1) (= (f8 ?v0 ?v2) f1))))))
(assert (forall ((?v0 S2) (?v1 S3)) (= (= (f103 (f104 f105 ?v0) ?v1) ?v1) (forall ((?v2 S4)) (=> (= (f6 ?v2 (f7 ?v1)) f1) (= (f3 ?v0 ?v2) f1))))))
(assert (forall ((?v0 S14) (?v1 S15)) (= (= (f106 (f107 f108 ?v0) ?v1) ?v1) (forall ((?v2 S11)) (=> (= (f21 ?v2 (f22 ?v1)) f1) (= (f18 ?v0 ?v2) f1))))))
(assert (forall ((?v0 S10) (?v1 S11)) (= (= (f110 (f111 f112 ?v0) ?v1) ?v1) (forall ((?v2 S12)) (=> (= (f16 ?v2 (f17 ?v1)) f1) (= (f13 ?v0 ?v2) f1))))))
(assert (forall ((?v0 S17) (?v1 S18)) (= (f27 (f69 (f100 f101 ?v0) ?v1)) (f171 (f24 (f25 ?v0) ?v1)))))
(assert (forall ((?v0 S6) (?v1 S7)) (= (f12 (f55 (f85 f86 ?v0) ?v1)) (f172 (f9 (f10 ?v0) ?v1)))))
(assert (forall ((?v0 S2) (?v1 S3)) (= (f7 (f103 (f104 f105 ?v0) ?v1)) (f173 (f4 (f5 ?v0) ?v1)))))
(assert (forall ((?v0 S14) (?v1 S15)) (= (f22 (f106 (f107 f108 ?v0) ?v1)) (f174 (f19 (f20 ?v0) ?v1)))))
(assert (forall ((?v0 S10) (?v1 S11)) (= (f17 (f110 (f111 f112 ?v0) ?v1)) (f175 (f14 (f15 ?v0) ?v1)))))
(assert (forall ((?v0 S6)) (= (f55 (f85 f86 ?v0) f102) f102)))
(assert (forall ((?v0 S14)) (= (f106 (f107 f108 ?v0) f109) f109)))
(assert (forall ((?v0 S10)) (= (f110 (f111 f112 ?v0) f113) f113)))
(assert (forall ((?v0 S2)) (= (f103 (f104 f105 ?v0) f98) f98)))
(assert (forall ((?v0 S17)) (= (f69 (f100 f101 ?v0) f73) f73)))
(assert (forall ((?v0 S19) (?v1 S19)) (= (= (f81 (f82 f83 ?v0) ?v1) f68) (or (= ?v0 f68) (= ?v1 f68)))))
(assert (forall ((?v0 S19)) (= (f81 (f82 f83 ?v0) f68) f68)))
(assert (forall ((?v0 S19)) (= (f81 (f82 f83 f68) ?v0) f68)))
(assert (forall ((?v0 S19) (?v1 S19) (?v2 S18)) (= (f97 f84 (f58 (f59 (f60 f61 ?v0) ?v1) ?v2)) ?v0)))
(assert (forall ((?v0 S19) (?v1 S19) (?v2 S18)) (= (f97 f84 (f58 (f59 (f60 f90 ?v0) ?v1) ?v2)) ?v0)))
(assert (forall ((?v0 S19) (?v1 S19) (?v2 S18) (?v3 S19) (?v4 S19) (?v5 S18)) (not (= (f58 (f59 (f60 f90 ?v0) ?v1) ?v2) (f58 (f59 (f60 f61 ?v3) ?v4) ?v5)))))
(assert (forall ((?v0 S19) (?v1 S19) (?v2 S18) (?v3 S19) (?v4 S19) (?v5 S18)) (not (= (f58 (f59 (f60 f61 ?v0) ?v1) ?v2) (f58 (f59 (f60 f90 ?v3) ?v4) ?v5)))))
(assert (forall ((?v0 S27) (?v1 S28) (?v2 S28) (?v3 S19) (?v4 S19) (?v5 S18)) (= (= (f8 (f87 (f88 (f89 ?v0) ?v1) ?v2) (f58 (f59 (f60 f61 ?v3) ?v4) ?v5)) f1) (= (f38 (f39 (f40 ?v1 ?v3) ?v4) ?v5) f1))))
(assert (forall ((?v0 S27) (?v1 S28) (?v2 S28) (?v3 S19) (?v4 S19) (?v5 S18)) (= (= (f8 (f87 (f88 (f89 ?v0) ?v1) ?v2) (f58 (f59 (f60 f90 ?v3) ?v4) ?v5)) f1) (= (f38 (f39 (f40 ?v2 ?v3) ?v4) ?v5) f1))))
(assert (forall ((?v0 S18)) (=> (forall ((?v1 S19)) (=> (= (f26 ?v1 (f27 ?v0)) f1) (not (= ?v1 f68)))) (= (f23 (f80 f68) (f42 f62 ?v0)) f1))))
(assert (forall ((?v0 S18) (?v1 S19)) (=> (forall ((?v2 S19)) (=> (= (f26 ?v2 (f27 ?v0)) f1) (not (= ?v2 f68)))) (=> (= (f26 ?v1 (f27 ?v0)) f1) (= (f23 (f78 ?v1) (f42 f62 ?v0)) f1)))))
(assert (forall ((?v0 S18) (?v1 S17)) (=> (forall ((?v2 S19)) (=> (= (f26 ?v2 (f27 ?v0)) f1) (not (= (f23 ?v1 ?v2) f1)))) (= (f69 (f100 f101 ?v1) ?v0) f73))))
(assert (forall ((?v0 S7) (?v1 S6)) (=> (forall ((?v2 S8)) (=> (= (f11 ?v2 (f12 ?v0)) f1) (not (= (f8 ?v1 ?v2) f1)))) (= (f55 (f85 f86 ?v1) ?v0) f102))))
(assert (forall ((?v0 S3) (?v1 S2)) (=> (forall ((?v2 S4)) (=> (= (f6 ?v2 (f7 ?v0)) f1) (not (= (f3 ?v1 ?v2) f1)))) (= (f103 (f104 f105 ?v1) ?v0) f98))))
(assert (forall ((?v0 S15) (?v1 S14)) (=> (forall ((?v2 S11)) (=> (= (f21 ?v2 (f22 ?v0)) f1) (not (= (f18 ?v1 ?v2) f1)))) (= (f106 (f107 f108 ?v1) ?v0) f109))))
(assert (forall ((?v0 S11) (?v1 S10)) (=> (forall ((?v2 S12)) (=> (= (f16 ?v2 (f17 ?v0)) f1) (not (= (f13 ?v1 ?v2) f1)))) (= (f110 (f111 f112 ?v1) ?v0) f113))))
(assert (forall ((?v0 S7) (?v1 S8)) (=> (forall ((?v2 S8)) (=> (= (f11 ?v2 (f12 ?v0)) f1) (not (= (f97 f84 ?v2) f68)))) (=> (forall ((?v2 S8)) (=> (= (f11 ?v2 (f12 ?v0)) f1) (not (= (f97 f66 ?v2) f68)))) (=> (= (f11 ?v1 (f12 (f55 f99 ?v0))) f1) (not (= (f97 f84 ?v1) f68)))))))
(assert (= (f23 (f78 f68) f72) f1))
(assert (= (f23 (f80 f68) f72) f1))
(assert (not (= (f23 (f80 f72) f68) f1)))
(assert (= (f23 (f78 f68) f72) f1))
(assert (not (= (f23 (f78 f72) f68) f1)))
(assert (forall ((?v0 S19) (?v1 S19) (?v2 S18)) (= (f97 f66 (f58 (f59 (f60 f90 ?v0) ?v1) ?v2)) (f42 (f176 (f177 f178 f68) f44) ?v2))))
(assert (forall ((?v0 S18) (?v1 S19)) (= (f179 (f27 ?v0) (f27 (f69 (f70 f71 ?v1) ?v0))) f1)))
(assert (forall ((?v0 S7) (?v1 S8)) (= (f180 (f12 ?v0) (f12 (f55 (f56 f57 ?v1) ?v0))) f1)))
(assert (forall ((?v0 S3) (?v1 S4)) (= (f181 (f7 ?v0) (f7 (f103 (f118 f119 ?v1) ?v0))) f1)))
(assert (forall ((?v0 S11) (?v1 S12)) (= (f182 (f17 ?v0) (f17 (f110 (f114 f115 ?v1) ?v0))) f1)))
(assert (forall ((?v0 S15) (?v1 S11)) (= (f183 (f22 ?v0) (f22 (f106 (f116 f117 ?v1) ?v0))) f1)))
(assert (forall ((?v0 S17) (?v1 S18)) (= (f179 (f27 (f69 (f100 f101 ?v0) ?v1)) (f27 ?v1)) f1)))
(assert (forall ((?v0 S6) (?v1 S7)) (= (f180 (f12 (f55 (f85 f86 ?v0) ?v1)) (f12 ?v1)) f1)))
(assert (forall ((?v0 S2) (?v1 S3)) (= (f181 (f7 (f103 (f104 f105 ?v0) ?v1)) (f7 ?v1)) f1)))
(assert (forall ((?v0 S14) (?v1 S15)) (= (f183 (f22 (f106 (f107 f108 ?v0) ?v1)) (f22 ?v1)) f1)))
(assert (forall ((?v0 S10) (?v1 S11)) (= (f182 (f17 (f110 (f111 f112 ?v0) ?v1)) (f17 ?v1)) f1)))
(check-sat)
(exit)
